30 99
51 45
20 170
45 60
52 59
59 10
10 28
59 58
8 183
20 41
91 65
5 136
52 31
16 174
6 157
28 15
22 181
84 24
6 55
20 39
10 65
43 25
26 175
12 135
11 16
32 53
91 31
3 57
38 57
92 47
3 46
43 6
16 86
53 61
21 2
12 88
71 52
8 188
2 125
40 148
75 47
52 66
15 162
78 17
7 96
97 18
61 62
47 41
96 17
59 10
2 182
84 8
94 44
65 57
15 92
38 29
26 139
40 146
21 157
21 126
22 43
96 30
24 99
8 38
41 3
17 95
12 27
43 18
17 131
18 192
29 125
24 5
24 179
8 98
35 126
10 79
7 65
22 53
87 21
54 99
34 90
30 38
12 32
84 13
20 7
73 20
11 9
44 16
16 54
19 98
80 4
49 51
32 94
20 47
46 59
98 59
12 22
9 158
16 58
99 17
